0.750000 0.750000 1.000000
5
3 2 3 4 
5 5 6 7 8 9 
5 10 11 12 13 14 
5 15 16 17 18 19 
2 20 21 
1 1 
1 2 
1 2 
1 2 
1 2 
1 2 
1 2 
1 2 
1 2 
1 2 
1 2 
1 2 
1 2 
1 3 
1 3 
1 3 
1 3 
1 3 
1 3 
1 3 
1 3 
1 3 
1 3 
1 3 
1 3 
1 4 
1 4 
1 4 
1 4 
1 4 
1 4 
1 4 
1 4 
1 4 
1 4 
1 4 
1 4 
1 1 
1 5 
1 5 
1 5 
1 5 
1 5 
1 5 
1 5 
1 5 
1 5 
1 5 
1 5 
1 5 
1 5 
1 5 
1 5 
1 5 
1 5 
1 5 
1 5 
1 5 
1 5 
1 5 
1 5 
1 5 
1 5 
1 5 
1 5 
1 5 
1 5 
1 5 
1 5 
1 5 
1 5 
1 5 
1 5 
1 5 
1 5 
1 5 
1 5 
1 5 
1 5 
1 5 
1 6 
1 6 
1 6 
1 6 
1 6 
1 6 
1 6 
1 6 
1 6 
1 6 
1 6 
1 6 
1 6 
1 6 
1 6 
1 6 
1 6 
1 6 
1 6 
1 6 
1 6 
1 6 
1 6 
1 6 
1 6 
1 6 
1 6 
1 6 
1 6 
1 6 
1 6 
1 6 
1 6 
1 6 
1 6 
1 6 
1 6 
1 6 
1 6 
1 6 
1 6 
1 6 
1 7 
1 7 
1 7 
1 7 
1 7 
1 7 
1 7 
1 7 
1 7 
1 7 
1 7 
1 7 
1 7 
1 7 
1 7 
1 7 
1 7 
1 7 
1 7 
1 7 
1 7 
1 7 
1 7 
1 7 
1 7 
1 7 
1 7 
1 7 
1 7 
1 7 
1 7 
1 7 
1 7 
1 7 
1 7 
1 7 
1 7 
1 7 
1 7 
1 7 
1 7 
1 7 
1 8 
1 8 
1 8 
1 8 
1 8 
1 8 
1 8 
1 8 
1 8 
1 8 
1 8 
1 8 
1 8 
1 8 
1 8 
1 8 
1 8 
1 8 
1 8 
1 8 
1 8 
1 8 
1 8 
1 8 
1 8 
1 8 
1 8 
1 8 
1 8 
1 8 
1 8 
1 8 
1 8 
1 8 
1 8 
1 8 
1 8 
1 8 
1 8 
1 8 
1 8 
1 8 
1 9 
1 9 
1 9 
1 9 
1 9 
1 9 
1 9 
1 9 
1 9 
1 9 
1 9 
1 9 
1 10 
1 10 
1 10 
1 10 
1 10 
1 10 
1 10 
1 10 
1 10 
1 10 
1 10 
1 10 
1 10 
1 10 
1 10 
1 10 
1 10 
1 10 
1 10 
1 10 
1 10 
1 10 
1 10 
1 10 
1 10 
1 10 
1 10 
1 10 
1 10 
1 10 
1 10 
1 10 
1 11 
2 11 4 
1 11 
2 11 5 
1 11 
1 11 
3 11 4 5 
3 11 4 5 
2 11 4 
3 11 4 5 
3 11 4 5 
3 11 4 5 
2 11 4 
3 11 4 5 
2 11 4 
3 11 4 5 
3 11 4 5 
3 11 4 5 
3 11 4 5 
3 11 4 5 
3 11 4 5 
3 11 4 5 
2 11 5 
3 11 4 5 
3 11 4 5 
3 11 4 5 
3 11 4 5 
3 11 4 5 
3 11 4 5 
1 11 
1 11 
3 11 4 5 
1 12 
1 12 
1 12 
1 12 
1 12 
1 12 
1 12 
1 12 
1 12 
1 12 
1 12 
1 12 
1 12 
1 12 
1 12 
1 12 
1 12 
1 12 
1 12 
1 12 
1 12 
1 12 
1 12 
1 12 
1 12 
1 12 
1 12 
1 12 
1 12 
1 12 
1 12 
1 12 
1 13 
1 13 
1 13 
1 13 
1 13 
1 13 
1 13 
1 13 
1 13 
1 13 
1 13 
1 13 
1 13 
1 13 
1 13 
1 13 
1 13 
1 13 
1 13 
1 13 
1 13 
1 13 
1 13 
1 13 
1 13 
1 13 
1 13 
1 13 
1 13 
1 13 
1 13 
1 13 
1 14 
1 14 
1 14 
1 14 
1 14 
1 14 
1 14 
1 14 
1 14 
1 14 
1 14 
1 14 
1 15 
2 15 13 
2 15 13 
1 15 
1 15 
1 15 
1 15 
2 15 13 
1 15 
1 15 
2 15 13 
2 15 13 
2 15 13 
2 15 13 
2 15 13 
2 15 13 
2 15 13 
2 15 13 
2 15 13 
2 15 13 
2 15 13 
2 15 13 
1 16 
1 16 
1 16 
2 16 12 
1 16 
1 16 
1 16 
1 16 
2 16 6 
1 16 
3 16 6 12 
1 16 
1 16 
1 16 
3 16 6 12 
2 16 12 
1 16 
2 16 12 
1 16 
1 16 
2 16 9 
4 16 6 9 12 
1 17 
1 17 
1 17 
1 17 
1 17 
1 17 
1 17 
2 17 2 
1 17 
1 17 
1 17 
1 17 
2 17 2 
2 17 2 
1 17 
1 17 
2 17 2 
1 17 
1 17 
1 17 
1 17 
2 17 2 
1 18 
1 18 
1 18 
1 18 
1 18 
1 18 
1 18 
1 18 
1 18 
1 18 
1 18 
1 18 
1 18 
1 18 
2 18 14 
1 18 
2 18 14 
2 18 14 
2 18 7 
2 18 15 
1 18 
4 18 7 14 15 
1 19 
4 19 11 4 5 
2 19 3 
1 19 
4 19 11 4 5 
5 19 3 11 4 5 
5 19 3 11 4 5 
5 19 3 11 4 5 
5 19 3 11 4 5 
5 19 11 4 5 17 
3 19 16 6 
8 19 3 11 4 5 16 6 17 
1 20 
1 20 
1 20 
1 20 
1 20 
1 20 
1 20 
1 20 
1 20 
2 20 8 
3 20 18 14 
4 20 8 18 14 
1 21 
1 21 
1 21 
2 21 10 
1 21 
1 21 
2 21 10 
3 21 10 20 
6 21 19 11 4 5 17 
2 21 10 
1 21 
8 21 10 19 11 4 5 17 20 
1 1 
